# Solution for model r5_t27_m5_5 Batch Number: 3
# Finished Task: 26 / 27
# Makespan: 534.0, Total Distance: 604.0, Total Time: 49.9400
# R O S F Batch
0 0 11 0.0 0.0 -1
1 1 22 0.0 0.0 -1
2 2 27 0.0 0.0 -1
3 3 7 0.0 0.0 -1
4 4 25 0.0 0.0 -1
5 0 26 171.0 199.0 0
6 3 24 328.0 352.0 0
7 3 23 181.0 211.0 0
8 1 10 274.0 302.0 0
9 1 21 361.0 399.0 0
10 1 9 329.0 352.0 0
11 0 5 108.0 133.0 0
12 2 20 352.0 389.0 0
13 4 18 435.0 455.0 2
14 -1 -1 -1.0 -1.0 2
15 4 13 398.0 418.0 2
16 3 -1 445.0 469.0 2
17 0 -1 468.0 502.0 1
18 4 -1 506.0 534.0 2
19 3 6 282.0 309.0 0
20 2 30 403.0 435.0 0
21 1 -1 469.0 502.0 2
22 1 31 183.0 204.0 0
23 3 19 219.0 253.0 0
24 3 16 371.0 410.0 2
25 4 29 28.0 60.0 0
26 0 17 409.0 435.0 0
27 2 12 236.0 271.0 0
28 4 15 351.0 374.0 0
29 4 28 135.0 156.0 0
30 2 -1 504.0 534.0 2
31 1 8 240.0 260.0 0
